76
16
0 16 17 18 20 21 23 24 25 26 30 32 33 34 36 37 39 40 42 47 51 52 54 57 64 66 67 68 69 70 72 73 74
1 16 17 20 24 25 26 28 29 32 33 34 37 42 43 45 47 49 51 53 54 55 56 59 60 61 62 64 65 66 67 68 72 73 74 75
2 16 17 19 20 21 23 24 26 28 29 30 33 34 36 42 43 47 48 49 52 53 54 57 59 61 63 64 67 69 70 71 72 73 74 75
3 16 18 19 20 24 27 29 33 34 36 37 39 40 41 42 43 47 49 51 52 53 54 57 59 60 61 64 67 69 71 72
4 16 18 20 23 24 25 26 27 28 30 31 33 36 37 38 39 41 47 50 51 53 54 60 61 62 63 67 69 70 73 74
5 16 17 18 22 23 25 26 29 31 33 34 35 36 37 39 40 46 48 52 53 54 56 57 62 65 67 68 70
6 17 18 20 21 24 29 31 32 35 36 38 39 40 41 47 49 52 53 54 59 60 61 62 63 65 68 71 73 75
7 18 20 22 23 26 28 29 33 34 36 37 38 43 44 49 50 51 57 59 62 66 71 73 74
8 16 17 18 20 23 25 26 28 29 31 32 33 34 51 52 54 55 59 64 65 66 70 73 74 75
9 16 22 23 24 25 31 37 40 41 42 44 47 49 51 53 54 56 57 62 64 66 67 72 73 74
10 19 22 25 26 28 29 32 33 34 37 41 42 44 48 62 65 68 69 72 74
11 19 21 23 24 29 32 36 37 43 49 50 61 70 71 74 75
12 16 24 28 30 31 37 44 49 64 65 66 67
13 25 45 68 75
14 26 29 30 35 52 72
15 21 38 48 58
